p cnf 10 20
-9 -4 9 0
-4 7 10 0
-10 -5 4 0
-5 1 10 0
-5 -1 7 0
-10 -6 5 0
-8 -7 9 0
-5 6 9 0
1 4 9 0
-9 -6 7 0
-7 1 4 0
2 5 9 0
-4 -2 4 0
-3 -2 -1 0
-2 2 3 0
-6 -3 7 0
-7 4 7 0
-10 -1 10 0
-4 2 3 0
-9 -8 5 0
